
===== New CPLEX run =====
Instance: /home/yorig/tuner/mpils-tests/instances/miplib/easy/mas74.mps
Config: /scratch/yorig/mpils-results-grid-ticks-10000-divide/easy/16proc/seed-4/5_mas74_seed-4_20260429_043455/expansion/config_param_CPXPARAM_Preprocessing_Symmetry_0_iter_2.prm
========================

Selected objective sense:  MINIMIZE
Selected objective  name:  obj
Selected RHS        name:  rhs
Selected bound      name:  bnd
Version identifier: 22.1.2.0 | 2024-11-26 | 0edbb82fd
CPXPARAM_Threads                                 8
CPXPARAM_Parallel                                1
CPXPARAM_MIP_Cuts_Cliques                        1
CPXPARAM_MIP_Cuts_Covers                         -1
CPXPARAM_MIP_Cuts_FlowCovers                     -1
CPXPARAM_MIP_Cuts_Implied                        -1
CPXPARAM_MIP_Cuts_GUBCovers                      -1
CPXPARAM_MIP_Limits_GomoryCand                   10
CPXPARAM_MIP_Cuts_Gomory                         2
CPXPARAM_MIP_Cuts_PathCut                        2
CPXPARAM_MIP_Cuts_MIRCut                         -1
CPXPARAM_MIP_Cuts_Disjunctive                    2
CPXPARAM_Emphasis_MIP                            3
CPXPARAM_Preprocessing_Symmetry                  0
CPXPARAM_MIP_Strategy_RINSHeur                   60
CPXPARAM_DetTimeLimit                            10000
CPXPARAM_MIP_Limits_CutsFactor                   1
Found incumbent of value 157344.610330 after 0.00 sec. (0.02 ticks)
Tried aggregator 1 time.
MIP Presolve eliminated 0 rows and 3 columns.
Reduced MIP has 13 rows, 148 columns, and 1682 nonzeros.
Reduced MIP has 145 binaries, 2 generals, 0 SOSs, and 0 indicators.
Presolve time = 0.00 sec. (0.84 ticks)
Probing time = 0.00 sec. (0.09 ticks)
Tried aggregator 1 time.
Reduced MIP has 13 rows, 148 columns, and 1682 nonzeros.
Reduced MIP has 145 binaries, 2 generals, 0 SOSs, and 0 indicators.
Presolve time = 0.00 sec. (0.58 ticks)
Probing time = 0.00 sec. (0.09 ticks)
MIP emphasis: best bound.
MIP search method: dynamic search.
Parallel mode: deterministic, using up to 8 threads.
Root relaxation solution time = 0.01 sec. (0.72 ticks)

        Nodes                                         Cuts/
   Node  Left     Objective  IInf  Best Integer    Best Bound    ItCnt     Gap

*     0+    0                       157344.6103        0.0000           100.00%
*     0+    0                        51840.4943        0.0000           100.00%
      0     0    10482.7953    12    51840.4943    10482.7953       43   79.78%
*     0+    0                        19197.4680    10482.7953            45.39%
*     0+    0                        15240.3317    10482.7953            31.22%
*     0+    0                        14372.8713    10482.7953            27.07%
*     0+    0                        13174.3215    10513.0180            20.20%
      0     2    10482.7953    12    13174.3215    10534.0211       43   20.04%
Elapsed time = 0.59 sec. (10.62 ticks, tree = 0.02 MB, solutions = 6)
*    10+    7                        12915.1000    10534.0211            18.44%
*    59+   42                        12759.1000    10534.0211            17.44%
*   101+   81                        11857.3713    10534.0211            11.16%

Performing restart 1

Repeating presolve.
Tried aggregator 1 time.
MIP Presolve eliminated 0 rows and 48 columns.
Reduced MIP has 13 rows, 100 columns, and 1067 nonzeros.
Reduced MIP has 98 binaries, 1 generals, 0 SOSs, and 0 indicators.
Presolve time = 0.00 sec. (0.39 ticks)
Tried aggregator 1 time.
Reduced MIP has 13 rows, 100 columns, and 1067 nonzeros.
Reduced MIP has 98 binaries, 1 generals, 0 SOSs, and 0 indicators.
Presolve time = 0.00 sec. (0.34 ticks)
Represolve time = 0.01 sec. (1.07 ticks)
   3442   896    10947.2789    12    11857.3713    10707.5119    18581    9.70%
  15591 12337    11082.5829    12    11857.3713    11003.2141    94893    7.20%
  38179 34017    11136.1363    12    11857.3713    11105.4983   241134    6.34%
  51504 45355    11221.1295    12    11857.3713    11105.4983   320016    6.34%

Performing restart 2

Repeating presolve.
Tried aggregator 1 time.
Reduced MIP has 13 rows, 100 columns, and 1067 nonzeros.
Reduced MIP has 99 binaries, 0 generals, 0 SOSs, and 0 indicators.
Presolve time = 0.00 sec. (0.34 ticks)
Tried aggregator 1 time.
Reduced MIP has 13 rows, 100 columns, and 1067 nonzeros.
Reduced MIP has 99 binaries, 0 generals, 0 SOSs, and 0 indicators.
Presolve time = 0.00 sec. (0.34 ticks)
Represolve time = 0.02 sec. (1.95 ticks)
  68646   161    10803.6509    12    11857.3713    11185.6974   437477    5.66%
  79278  9946    11054.5224    12    11857.3713    11185.6974   500897    5.66%
  99943 29113    11330.2942    12    11857.3713    11185.6974   629345    5.66%
 121407 48765    11397.1367    11    11857.3713    11189.7360   765990    5.63%
 143042 66861    11273.4037    12    11857.3713    11234.2459   893239    5.26%
*147729+71189                        11801.1857    11241.9190             4.74%
 229551 138028    11353.1070    11    11801.1857    11339.3495  1424880    3.91%
Elapsed time = 18.17 sec. (3116.42 ticks, tree = 31.17 MB, solutions = 17)
 311540 198355        cutoff          11801.1857    11397.0702  1900133    3.42%
 391077 254011    11445.5439    10    11801.1857    11438.5944  2368568    3.07%
 472444 304929    11486.4734    12    11801.1857    11473.3526  2826451    2.78%
 550421 350346    11506.5715    12    11801.1857    11501.5378  3271187    2.54%
 629478 391916    11642.4797    11    11801.1857    11526.9813  3713787    2.32%
 714267 431139    11568.0623    11    11801.1857    11550.8900  4174751    2.12%
 799601 466254    11698.8314    11    11801.1857    11572.6485  4629864    1.94%

Clique cuts applied:  0
Flow path cuts applied:  0
Gomory fractional cuts applied:  0
Disjunctive cuts applied:  0
Cone linearizations applied:  0

Root node processing (before b&c):
  Real time             =    0.49 sec. (10.58 ticks)
Parallel b&c, 8 threads:
  Real time             =   57.87 sec. (9990.12 ticks)
  Sync time (average)   =   30.77 sec.
  Wait time (average)   =    0.56 sec.
                          ------------
Total (root+branch&cut) =   58.35 sec. (10000.70 ticks)
Gap: 1.89%
Upper bound: 11801.2
Lower bound: 11577.7
End of CPLEX run. Time: 58.3889 seconds
